(set-logic QF_UF)
(declare-fun A0 () Bool)
(declare-fun A2 () Bool)
(declare-fun A3 () Bool)
(declare-fun A4 () Bool)
(declare-fun A5 () Bool)
(declare-fun A6 () Bool)
(declare-fun A7 () Bool)
(declare-fun A8 () Bool)
(declare-fun A9 () Bool)
(declare-fun A10 () Bool)
(declare-fun A11 () Bool)
(declare-fun A12 () Bool)
(declare-fun A13 () Bool)
(declare-fun A15 () Bool)
(declare-fun A16 () Bool)
(declare-fun A17 () Bool)
(declare-fun A18 () Bool)
(declare-fun A19 () Bool)
(declare-fun A20 () Bool)
(declare-fun A21 () Bool)
(declare-fun A22 () Bool)
(declare-fun A23 () Bool)
(declare-fun A24 () Bool)
(declare-fun A27 () Bool)
(declare-fun A28 () Bool)
(declare-fun A29 () Bool)
(assert (let ((.def_0 (not A7))) (let ((.def_1 (and A24 .def_0))) (let ((.def_2 (not A16))) (let ((.def_3 (and A3 .def_2))) (let ((.def_4 (not .def_3))) (let ((.def_5 (or .def_4 .def_1))) (let ((.def_6 (not .def_5))) (let ((.def_7 (not A10))) (let ((.def_8 (or .def_7 A29))) (let ((.def_9 (not A8))) (let ((.def_10 (or .def_9 A8))) (let ((.def_11 (not .def_10))) (let ((.def_12 (or .def_11 .def_8))) (let ((.def_13 (and .def_12 .def_6))) (let ((.def_14 (not .def_13))) (let ((.def_15 (not A29))) (let ((.def_16 (or .def_0 .def_15))) (let ((.def_17 (not .def_16))) (let ((.def_18 (not A15))) (let ((.def_19 (and A11 .def_18))) (let ((.def_20 (and .def_19 .def_17))) (let ((.def_21 (not .def_20))) (let ((.def_22 (not A19))) (let ((.def_23 (or .def_22 A17))) (let ((.def_24 (not .def_23))) (let ((.def_25 (= A27 A12))) (let ((.def_26 (and .def_25 .def_24))) (let ((.def_27 (not .def_26))) (let ((.def_28 (and .def_27 .def_21))) (let ((.def_29 (and .def_28 .def_14))) (let ((.def_30 (and .def_22 A16))) (let ((.def_31 (not .def_30))) (let ((.def_32 (or .def_2 A23))) (let ((.def_33 (or .def_32 .def_31))) (let ((.def_34 (not .def_33))) (let ((.def_35 (not A28))) (let ((.def_36 (or .def_35 A7))) (let ((.def_37 (not .def_36))) (let ((.def_38 (not A13))) (let ((.def_39 (or .def_38 .def_35))) (let ((.def_40 (not .def_39))) (let ((.def_41 (or .def_40 .def_37))) (let ((.def_42 (or .def_41 .def_34))) (let ((.def_43 (not A20))) (let ((.def_44 (and A0 .def_43))) (let ((.def_45 (and .def_38 A17))) (let ((.def_46 (not .def_45))) (let ((.def_47 (and .def_46 .def_44))) (let ((.def_48 (not .def_47))) (let ((.def_49 (not A9))) (let ((.def_50 (= A11 .def_49))) (let ((.def_51 (not A5))) (let ((.def_52 (or .def_51 A6))) (let ((.def_53 (not .def_52))) (let ((.def_54 (and .def_53 .def_50))) (let ((.def_55 (or .def_54 .def_48))) (let ((.def_56 (not .def_55))) (let ((.def_57 (or .def_56 .def_42))) (let ((.def_58 (or .def_57 .def_29))) (let ((.def_59 (or .def_22 A15))) (let ((.def_60 (and A21 A9))) (let ((.def_61 (and .def_60 .def_59))) (let ((.def_62 (not A11))) (let ((.def_63 (and .def_62 A0))) (let ((.def_64 (not .def_63))) (let ((.def_65 (not A12))) (let ((.def_66 (or .def_65 A7))) (let ((.def_67 (or .def_66 .def_64))) (let ((.def_68 (or .def_67 .def_61))) (let ((.def_69 (not .def_68))) (let ((.def_70 (not A27))) (let ((.def_71 (not A22))) (let ((.def_72 (or .def_71 .def_70))) (let ((.def_73 (not .def_72))) (let ((.def_74 (or A3 A6))) (let ((.def_75 (not .def_74))) (let ((.def_76 (and .def_75 .def_73))) (let ((.def_77 (not A0))) (let ((.def_78 (and .def_43 .def_77))) (let ((.def_79 (not A2))) (let ((.def_80 (or .def_62 .def_79))) (let ((.def_81 (not .def_80))) (let ((.def_82 (= .def_81 .def_78))) (let ((.def_83 (or .def_82 .def_76))) (let ((.def_84 (not .def_83))) (let ((.def_85 (and .def_84 .def_69))) (let ((.def_86 (not .def_85))) (let ((.def_87 (or .def_9 .def_9))) (let ((.def_88 (not .def_87))) (let ((.def_89 (or .def_65 .def_65))) (let ((.def_90 (or .def_89 .def_88))) (let ((.def_91 (or A2 A16))) (let ((.def_92 (not A4))) (let ((.def_93 (and .def_15 .def_92))) (let ((.def_94 (not .def_93))) (let ((.def_95 (or .def_94 .def_91))) (let ((.def_96 (and .def_95 .def_90))) (let ((.def_97 (and .def_51 A8))) (let ((.def_98 (and .def_15 A19))) (let ((.def_99 (not .def_98))) (let ((.def_100 (or .def_99 .def_97))) (let ((.def_101 (not .def_100))) (let ((.def_102 (not A6))) (let ((.def_103 (and A18 .def_102))) (let ((.def_104 (not A3))) (let ((.def_105 (and A8 .def_104))) (let ((.def_106 (and .def_105 .def_103))) (let ((.def_107 (and .def_106 .def_101))) (let ((.def_108 (not .def_107))) (let ((.def_109 (and .def_108 .def_96))) (let ((.def_110 (not .def_109))) (let ((.def_111 (or .def_110 .def_86))) (let ((.def_112 (not .def_111))) (let ((.def_113 (and .def_112 .def_58))) (let ((.def_114 (not .def_113))) .def_114))))))))))))))))))))))))))))))))))))))))))))))))))))))))))))))))))))))))))))))))))))))))))))))))))))))))))))))))))))
(check-sat)
